# step eps sigma_xx sigma_yy sigma_zz sigma_vm
1.000000e+00 4.000000e-04 4.403839e+01 3.722049e-12 3.695380e-12 4.403839e+01
2.000000e+00 8.000000e-04 8.815362e+01 5.607138e-10 5.606792e-10 8.815362e+01
3.000000e+00 1.200000e-03 1.323458e+02 5.114311e-10 5.113920e-10 1.323458e+02
4.000000e+00 1.600000e-03 1.758692e+02 -1.542165e-06 -1.034055e-06 1.758705e+02
5.000000e+00 2.000000e-03 1.912317e+02 -3.189209e-04 -2.362088e-04 1.915930e+02
